decision_x1=[0,4];
decision_x2=[0,4];
decision_x3=[0,4];
decision_x4=[0,4];
decision_x5=[0,4];
decision_x6=[0,4];
decision_x7=[0,4];
decision_x8=[0,4];
decision_x9=[0,4];
decision_x10=[0,4];
random_y1=[0,4];
random_y2=[0,4];
constraint_x2_x1=[
0,1,2.8|
0,2,0.42|
0,3,1.8|
0,4,0.39|
1,0,8.2|
1,2,9.6|
1,3,0.22|
1,4,4.4|
2,0,9.4|
2,1,2.4|
2,3,6.6|
2,4,7.3|
3,0,6.2|
3,1,8.1|
3,2,2.3|
3,4,0.3|
4,0,2.2|
4,1,7.4|
4,2,4.4|
4,3,4.6|
];
constraint_x4_x1=[
0,1,2|
0,2,2.5|
0,3,1.1|
0,4,1.1|
1,0,8.9|
1,2,3.4|
1,3,7.9|
1,4,0.87|
2,0,6.8|
2,1,9.7|
2,3,3.3|
2,4,7.6|
3,0,4.6|
3,1,9.6|
3,2,4.8|
3,4,3.1|
4,0,4.4|
4,1,7.2|
4,2,4|
4,3,6.7|
];
constraint_x4_x2=[
0,1,5.6|
0,2,0.48|
0,3,5|
0,4,3.6|
1,0,2.4|
1,2,4.3|
1,3,0.48|
1,4,3.5|
2,0,8.7|
2,1,9.3|
2,3,4.4|
2,4,9.7|
3,0,0.61|
3,1,9.7|
3,2,8.2|
3,4,8.9|
4,0,4.4|
4,1,7.5|
4,2,4.6|
4,3,9.7|
];
constraint_x5_x1=[
0,1,9.6|
0,2,0.94|
0,3,4.8|
0,4,8.5|
1,0,9.5|
1,2,1.3|
1,3,0.32|
1,4,4|
2,0,5.6|
2,1,4.8|
2,3,1.7|
2,4,8.2|
3,0,5.2|
3,1,2.7|
3,2,8.5|
3,4,7.3|
4,0,8.3|
4,1,9.4|
4,2,1.1|
4,3,0.32|
];
constraint_x5_x3=[
0,1,1.7|
0,2,6|
0,3,7.7|
0,4,3.6|
1,0,3.1|
1,2,6.4|
1,3,3.8|
1,4,3.5|
2,0,7|
2,1,5.5|
2,3,5.9|
2,4,6.2|
3,0,6.1|
3,1,5.2|
3,2,0.27|
3,4,1.4|
4,0,2.6|
4,1,5.6|
4,2,3.2|
4,3,8.8|
];
constraint_x6_x1=[
0,1,2.7|
0,2,0.66|
0,3,3.2|
0,4,2.6|
1,0,2.3|
1,2,8.3|
1,3,1.4|
1,4,0.69|
2,0,1.2|
2,1,7.7|
2,3,4.7|
2,4,6.4|
3,0,2.9|
3,1,8|
3,2,0.89|
3,4,9.5|
4,0,0.17|
4,1,8.9|
4,2,3.8|
4,3,0.68|
];
constraint_x6_x2=[
0,1,2.6|
0,2,1.4|
0,3,9.9|
0,4,8.7|
1,0,2.2|
1,2,4.1|
1,3,8.7|
1,4,6.3|
2,0,2.1|
2,1,4|
2,3,6.4|
2,4,4.2|
3,0,6.2|
3,1,7.3|
3,2,7.3|
3,4,4.1|
4,0,3|
4,1,1.5|
4,2,8.6|
4,3,6.6|
];
constraint_x6_x5=[
0,1,2.4|
0,2,9.8|
0,3,3.5|
0,4,4|
1,0,3.3|
1,2,6.7|
1,3,5|
1,4,5.4|
2,0,7.2|
2,1,0.92|
2,3,2|
2,4,3.9|
3,0,8.1|
3,1,6.3|
3,2,3.4|
3,4,4.7|
4,0,0.92|
4,1,2.1|
4,2,9.8|
4,3,4.6|
];
constraint_x7_x1=[
0,1,3.1|
0,2,6.5|
0,3,1.8|
0,4,0.25|
1,0,8.1|
1,2,9.4|
1,3,8.3|
1,4,2.7|
2,0,8.9|
2,1,3.6|
2,3,6.3|
2,4,2.5|
3,0,10|
3,1,7.6|
3,2,8.4|
3,4,1.2|
4,0,6.2|
4,1,1.4|
4,2,1.5|
4,3,2.9|
];
constraint_x7_x2=[
0,1,9.7|
0,2,1.9|
0,3,5.8|
0,4,4.3|
1,0,1.4|
1,2,3|
1,3,2.3|
1,4,8.9|
2,0,9.4|
2,1,0.84|
2,3,8.5|
2,4,5.3|
3,0,3.5|
3,1,1|
3,2,3.6|
3,4,3|
4,0,8.9|
4,1,4.7|
4,2,3.7|
4,3,2.4|
];
constraint_x8_x1=[
0,1,3.6|
0,2,3.4|
0,3,7|
0,4,9.2|
1,0,1.7|
1,2,9.3|
1,3,0.25|
1,4,1.6|
2,0,3.8|
2,1,0.72|
2,3,8.2|
2,4,7.7|
3,0,9.6|
3,1,9.8|
3,2,6.5|
3,4,5.8|
4,0,5.3|
4,1,5.8|
4,2,1.4|
4,3,2.3|
];
constraint_x8_x7=[
0,1,1.2|
0,2,2.3|
0,3,5.9|
0,4,6.6|
1,0,5.5|
1,2,0.94|
1,3,7.1|
1,4,8.5|
2,0,3.7|
2,1,4.4|
2,3,8.7|
2,4,3.6|
3,0,2.5|
3,1,1.1|
3,2,9.2|
3,4,6.5|
4,0,8.4|
4,1,2.7|
4,2,2.7|
4,3,3.8|
];
constraint_x9_x1=[
0,1,6.4|
0,2,6.4|
0,3,3.6|
0,4,0.18|
1,0,8.7|
1,2,9.4|
1,3,1.9|
1,4,8.4|
2,0,5.5|
2,1,8.2|
2,3,2|
2,4,3.6|
3,0,6|
3,1,0.87|
3,2,0.6|
3,4,4.1|
4,0,5|
4,1,3.3|
4,2,7.2|
4,3,7.5|
];
constraint_x9_x2=[
0,1,1.3|
0,2,5.4|
0,3,7.9|
0,4,7.1|
1,0,8.9|
1,2,6.1|
1,3,9.8|
1,4,6.9|
2,0,1.6|
2,1,2.3|
2,3,7.6|
2,4,0.61|
3,0,7.1|
3,1,7.2|
3,2,5.7|
3,4,0.052|
4,0,6.1|
4,1,0.0042|
4,2,9.7|
4,3,4.4|
];
constraint_x9_x3=[
0,1,8.3|
0,2,3.7|
0,3,8.1|
0,4,7.5|
1,0,2.1|
1,2,8.9|
1,3,3.9|
1,4,4.3|
2,0,0.31|
2,1,3.2|
2,3,9.5|
2,4,2|
3,0,8.4|
3,1,4.4|
3,2,4.7|
3,4,7.9|
4,0,5.7|
4,1,6.8|
4,2,5.9|
4,3,7.4|
];
constraint_x9_x4=[
0,1,3.5|
0,2,3.4|
0,3,0.13|
0,4,4.5|
1,0,8.6|
1,2,1.3|
1,3,3.3|
1,4,2|
2,0,4.1|
2,1,7.3|
2,3,1.1|
2,4,2.4|
3,0,8.6|
3,1,6.5|
3,2,5.2|
3,4,9.9|
4,0,9|
4,1,0.81|
4,2,1.4|
4,3,4.6|
];
constraint_x9_x8=[
0,1,6.5|
0,2,7.2|
0,3,3.6|
0,4,1.2|
1,0,7.5|
1,2,7.3|
1,3,5.7|
1,4,9.5|
2,0,2.8|
2,1,4.1|
2,3,1.5|
2,4,1.6|
3,0,2.4|
3,1,3.7|
3,2,6|
3,4,5.2|
4,0,7.1|
4,1,9.8|
4,2,7.3|
4,3,4.2|
];
constraint_x10_x1=[
0,1,1.8|
0,2,8|
0,3,9|
0,4,2.6|
1,0,8.1|
1,2,1.6|
1,3,4.1|
1,4,7.4|
2,0,8.6|
2,1,0.73|
2,3,4.5|
2,4,2.8|
3,0,3.8|
3,1,2.9|
3,2,7.5|
3,4,4.4|
4,0,0.47|
4,1,2.7|
4,2,5.8|
4,3,8.2|
];
constraint_x10_x2=[
0,1,0.52|
0,2,8.1|
0,3,8|
0,4,2.7|
1,0,0.77|
1,2,1.7|
1,3,3.3|
1,4,2.5|
2,0,7.1|
2,1,0.12|
2,3,6.1|
2,4,0.078|
3,0,7.8|
3,1,6.5|
3,2,7|
3,4,8.2|
4,0,3.1|
4,1,1.3|
4,2,8.4|
4,3,6.5|
];
constraint_x10_x3=[
0,1,6.4|
0,2,2.2|
0,3,9.5|
0,4,7.7|
1,0,8.5|
1,2,0.63|
1,3,9.3|
1,4,5.1|
2,0,4.2|
2,1,2.6|
2,3,3.2|
2,4,6.2|
3,0,2.9|
3,1,3.1|
3,2,2.6|
3,4,5.3|
4,0,1.5|
4,1,5.8|
4,2,5.7|
4,3,6.4|
];
constraint_x10_x5=[
0,1,6.2|
0,2,2.5|
0,3,8.3|
0,4,0.52|
1,0,9.6|
1,2,6.7|
1,3,7.6|
1,4,6.8|
2,0,9.7|
2,1,6.5|
2,3,4.3|
2,4,9.1|
3,0,6.4|
3,1,3.9|
3,2,3.4|
3,4,2.4|
4,0,1.4|
4,1,2.4|
4,2,5.3|
4,3,0.17|
];
constraint_x10_x6=[
0,1,5.5|
0,2,5.3|
0,3,2.3|
0,4,4|
1,0,9.9|
1,2,4.8|
1,3,0.34|
1,4,2.2|
2,0,4|
2,1,7.6|
2,3,2.7|
2,4,2.7|
3,0,8.3|
3,1,6.6|
3,2,7.9|
3,4,9.6|
4,0,5|
4,1,0.68|
4,2,4.9|
4,3,6.5|
];
constraint_x10_x7=[
0,1,5.9|
0,2,9.6|
0,3,7.9|
0,4,4.6|
1,0,7.5|
1,2,2.1|
1,3,5.7|
1,4,5.1|
2,0,1.1|
2,1,6.9|
2,3,7.3|
2,4,3.7|
3,0,8.8|
3,1,3.6|
3,2,0.11|
3,4,5|
4,0,8.6|
4,1,3.8|
4,2,3.7|
4,3,5.2|
];
constraint_x1_y1=[
0,0,7.6|
0,1,1.6|
0,2,1.3|
0,3,8.3|
0,4,2.1|
1,0,2|
1,1,4.1|
1,2,4|
1,3,2.7|
1,4,5.8|
2,0,4.9|
2,1,9.2|
2,2,3.6|
2,3,4.6|
2,4,9.2|
3,0,9.5|
3,1,1.9|
3,2,9.7|
3,3,0.74|
3,4,9.9|
4,0,4.6|
4,1,9.1|
4,2,7.3|
4,3,3.7|
4,4,1.9|
];
constraint_x2_y2=[
0,0,3.8|
0,1,3.1|
0,2,8.8|
0,3,7|
0,4,6.9|
1,0,4.9|
1,1,9.7|
1,2,3.6|
1,3,3.9|
1,4,9.5|
2,0,7.1|
2,1,8.2|
2,2,7.7|
2,3,9.3|
2,4,6.5|
3,0,6.2|
3,1,1.7|
3,2,3.5|
3,3,7.3|
3,4,1.8|
4,0,9.7|
4,1,6.4|
4,2,6|
4,3,4.7|
4,4,6.1|
];
initial_distribution_y1=[0.076,0.16,0.17,0.26,0.34];
initial_distribution_y2=[0.11,0.47,0.13,0.16,0.14];
transition_y1=[
0.025,0.17,0.39,0.23,0.18|
0.26,0.13,0.3,0.14,0.16|
0.1,0.25,0.27,0.074,0.31|
0.25,0.28,0.17,0.055,0.24|
0.12,0.075,0.37,0.29,0.14|
];
transition_y2=[
0.22,0.43,0.087,0.25,0.02|
0.14,0.1,0.34,0.27,0.15|
0.24,0.21,0.1,0.24,0.2|
0.28,0.23,0.16,0.22,0.12|
0.22,0.3,0.077,0.27,0.13|
];
